p wcnf 191 96 97 
1 15 181 0 
1 -118 -52 0 
1 -151 161 0 
1 25 -70 0 
1 142 66 0 
1 -151 -145 0 
1 166 10 0 
1 84 173 0 
1 84 -54 0 
1 -83 148 0 
1 -86 6 0 
1 69 80 0 
1 117 66 0 
1 -20 -121 0 
1 -142 65 0 
1 28 154 0 
1 6 93 0 
1 -45 -41 0 
1 52 110 0 
1 15 -152 0 
1 -90 2 0 
1 -3 -14 0 
1 -40 67 0 
1 6 -170 0 
1 -104 -1 0 
1 -103 15 0 
1 67 22 0 
1 24 -1 0 
1 167 -143 0 
1 143 -150 0 
1 -159 161 0 
1 -150 -106 0 
1 165 -2 0 
1 -94 -150 0 
1 -34 -188 0 
1 -119 -90 0 
1 17 133 0 
1 2 -71 0 
1 21 137 0 
1 -172 107 0 
1 -43 83 0 
1 13 117 0 
1 -167 48 0 
1 -91 108 0 
1 -179 -127 0 
1 -74 93 0 
1 -174 -98 0 
1 167 186 0 
1 111 -7 0 
1 171 53 0 
1 116 177 0 
1 11 191 0 
1 150 -45 0 
1 87 -129 0 
1 -131 -80 0 
1 -184 -178 0 
1 113 118 0 
1 -71 191 0 
1 -167 162 0 
1 -37 82 0 
1 79 -84 0 
1 -180 37 0 
1 58 149 0 
1 157 159 0 
1 1 190 0 
1 -3 -38 0 
1 61 -146 0 
1 19 93 0 
1 178 42 0 
1 -79 191 0 
1 111 -43 0 
1 165 -75 0 
1 -88 -67 0 
1 -87 -73 0 
1 -44 -110 0 
1 86 -40 0 
1 -179 -146 0 
1 -13 -67 0 
1 -155 -106 0 
1 -29 -115 0 
1 -75 184 0 
1 -58 101 0 
1 -99 -104 0 
1 -157 -96 0 
1 -71 -166 0 
1 36 -12 0 
1 -179 98 0 
1 -50 184 0 
1 32 84 0 
1 -147 174 0 
1 93 184 0 
1 6 -46 0 
1 176 154 0 
1 45 -46 0 
1 -137 -148 0 
1 170 -102 0 
